(set-info :smt-lib-version 2.6)
(set-logic QF_BV)
(set-info :source |
Benchmarks generated by the Calysto static checker.  Provided by Domagoj
Babic.  See http://www.cs.ubc.ca/~babic/index_benchmarks.htm.  Translated using
Spear Sf2Smt translator.

|)
(set-info :category "industrial")
(set-info :status sat)
(declare-fun v19364112 () (_ BitVec 32))
(declare-fun o22537460 () (_ BitVec 64))
(declare-fun v23039128 () (_ BitVec 64))
(declare-fun o19034264 () (_ BitVec 64))
(declare-fun o23651612 () (_ BitVec 64))
(declare-fun o23327652 () (_ BitVec 64))
(declare-fun o25718208 () (_ BitVec 1))
(declare-fun v19516788 () (_ BitVec 64))
(declare-fun o23093316 () (_ BitVec 1))
(declare-fun o20317252 () (_ BitVec 32))
(declare-fun o22660600 () (_ BitVec 1))
(declare-fun o23749368 () (_ BitVec 1))
(declare-fun o22499180 () (_ BitVec 1))
(declare-fun o22340300 () (_ BitVec 1))
(declare-fun v25668136 () (_ BitVec 64))
(declare-fun o21222084 () (_ BitVec 1))
(declare-fun v22780276 () (_ BitVec 64))
(declare-fun o22780308 () (_ BitVec 1))
(declare-fun v21673608 () (_ BitVec 32))
(declare-fun o22780332 () (_ BitVec 1))
(declare-fun o21673656 () (_ BitVec 32))
(declare-fun o21673684 () (_ BitVec 32))
(declare-fun o21449588 () (_ BitVec 1))
(declare-fun o21266652 () (_ BitVec 1))
(declare-fun o21266688 () (_ BitVec 1))
(declare-fun o24317332 () (_ BitVec 1))
(declare-fun o25407732 () (_ BitVec 1))
(declare-fun o25407768 () (_ BitVec 1))
(declare-fun o20393336 () (_ BitVec 1))
(declare-fun o25668184 () (_ BitVec 1))
(declare-fun o25668220 () (_ BitVec 1))
(declare-fun o20393356 () (_ BitVec 1))
(declare-fun o19153716 () (_ BitVec 1))
(declare-fun o20393392 () (_ BitVec 1))
(declare-fun o22751640 () (_ BitVec 1))
(declare-fun o22751544 () (_ BitVec 1))
(declare-fun v22548456 () (_ BitVec 32))
(declare-fun o24165336 () (_ BitVec 1))
(declare-fun v24605372 () (_ BitVec 32))
(declare-fun o21303860 () (_ BitVec 1))
(declare-fun o21303896 () (_ BitVec 1))
(declare-fun v25077452 () (_ BitVec 32))
(declare-fun o25077508 () (_ BitVec 1))
(declare-fun o25077544 () (_ BitVec 1))
(declare-fun o24998812 () (_ BitVec 1))
(declare-fun o20580672 () (_ BitVec 1))
(declare-fun v19061472 () (_ BitVec 32))
(declare-fun o21303836 () (_ BitVec 1))
(declare-fun o22200596 () (_ BitVec 8))
(declare-fun o25470900 () (_ BitVec 1))
(declare-fun o20580708 () (_ BitVec 1))
(declare-fun o23717016 () (_ BitVec 1))
(declare-fun v23521564 () (_ BitVec 32))
(declare-fun v20393428 () (_ BitVec 32))
(declare-fun o23127324 () (_ BitVec 1))
(declare-fun o23127368 () (_ BitVec 32))
(declare-fun o23127404 () (_ BitVec 32))
(declare-fun o20355160 () (_ BitVec 32))
(declare-fun o20355204 () (_ BitVec 1))
(declare-fun o23716984 () (_ BitVec 1))
(declare-fun v19190664 () (_ BitVec 64))
(declare-fun o25454344 () (_ BitVec 1))
(declare-fun v25122984 () (_ BitVec 64))
(declare-fun o25123008 () (_ BitVec 1))
(declare-fun v25144596 () (_ BitVec 32))
(declare-fun v20576284 () (_ BitVec 64))
(declare-fun o29503036 () (_ BitVec 1))
(declare-fun o25009676 () (_ BitVec 32))
(declare-fun o22702164 () (_ BitVec 32))
(declare-fun o29415276 () (_ BitVec 1))
(declare-fun o25531300 () (_ BitVec 1))
(declare-fun o25123048 () (_ BitVec 1))
(declare-fun o31516244 () (_ BitVec 1))
(declare-fun o29527836 () (_ BitVec 1))
(declare-fun o27300472 () (_ BitVec 1))
(declare-fun o29470356 () (_ BitVec 1))
(declare-fun o32692492 () (_ BitVec 64))
(declare-fun o25072480 () (_ BitVec 1))
(declare-fun v27189596 () (_ BitVec 1))
(declare-fun v25093012 () (_ BitVec 32))
(declare-fun o21759364 () (_ BitVec 1))
(declare-fun o21759312 () (_ BitVec 1))
(declare-fun o27095048 () (_ BitVec 1))
(declare-fun o19316296 () (_ BitVec 1))
(declare-fun o19316324 () (_ BitVec 1))
(declare-fun o28443504 () (_ BitVec 1))
(declare-fun o32644836 () (_ BitVec 1))
(declare-fun o50755068 () (_ BitVec 1))
(declare-fun o50805700 () (_ BitVec 1))
(declare-fun o23552076 () (_ BitVec 1))
(declare-fun o39975020 () (_ BitVec 1))
(declare-fun o36596960 () (_ BitVec 1))
(declare-fun v25531356 () (_ BitVec 32))
(declare-fun o25644820 () (_ BitVec 1))
(declare-fun o32558196 () (_ BitVec 1))
(declare-fun o19000660 () (_ BitVec 1))
(declare-fun o21286176 () (_ BitVec 1))
(declare-fun o38529216 () (_ BitVec 1))
(declare-fun o25454364 () (_ BitVec 1))
(declare-fun o21594200 () (_ BitVec 1))
(declare-fun o30866344 () (_ BitVec 1))
(declare-fun o35556656 () (_ BitVec 1))
(declare-fun o24181732 () (_ BitVec 1))
(declare-fun o33410680 () (_ BitVec 1))
(declare-fun v21505320 () (_ BitVec 64))
(declare-fun o18858432 () (_ BitVec 1))
(declare-fun v25026348 () (_ BitVec 32))
(declare-fun v22013688 () (_ BitVec 64))
(declare-fun o23562044 () (_ BitVec 1))
(declare-fun v22882888 () (_ BitVec 32))
(declare-fun v25387700 () (_ BitVec 64))
(declare-fun o21410672 () (_ BitVec 1))
(declare-fun o20784696 () (_ BitVec 32))
(declare-fun o20784716 () (_ BitVec 32))
(declare-fun o19190696 () (_ BitVec 1))
(declare-fun v20846788 () (_ BitVec 32))
(declare-fun o20513192 () (_ BitVec 1))
(declare-fun v18927880 () (_ BitVec 32))
(declare-fun o25588368 () (_ BitVec 32))
(declare-fun o25588404 () (_ BitVec 32))
(declare-fun o25692912 () (_ BitVec 32))
(declare-fun o25692964 () (_ BitVec 1))
(declare-fun o51737508 () (_ BitVec 1))
(declare-fun o22504312 () (_ BitVec 1))
(declare-fun o24649952 () (_ BitVec 1))
(declare-fun v20639260 () (_ BitVec 64))
(declare-fun v21992300 () (_ BitVec 64))
(declare-fun o19425432 () (_ BitVec 1))
(declare-fun o38434836 () (_ BitVec 1))
(declare-fun v23697620 () (_ BitVec 64))
(declare-fun o22366488 () (_ BitVec 1))
(declare-fun o36493360 () (_ BitVec 1))
(declare-fun o45769360 () (_ BitVec 1))
(declare-fun v19560048 () (_ BitVec 64))
(declare-fun o22364272 () (_ BitVec 1))
(declare-fun v25968884 () (_ BitVec 32))
(declare-fun o19616752 () (_ BitVec 1))
(declare-fun o19647940 () (_ BitVec 32))
(declare-fun o20432844 () (_ BitVec 32))
(declare-fun o21676376 () (_ BitVec 1))
(declare-fun o23069060 () (_ BitVec 1))
(declare-fun o24481612 () (_ BitVec 1))
(declare-fun o23830276 () (_ BitVec 1))
(declare-fun o21273216 () (_ BitVec 1))
(declare-fun o21842604 () (_ BitVec 1))
(declare-fun o19551252 () (_ BitVec 1))
(declare-fun o21576812 () (_ BitVec 1))
(declare-fun o26116684 () (_ BitVec 1))
(declare-fun o35410832 () (_ BitVec 1))
(declare-fun o21430092 () (_ BitVec 1))
(declare-fun o24306320 () (_ BitVec 1))
(declare-fun o27055816 () (_ BitVec 1))
(declare-fun o39073808 () (_ BitVec 1))
(declare-fun v19369536 () (_ BitVec 32))
(declare-fun o19672876 () (_ BitVec 32))
(declare-fun o23224712 () (_ BitVec 32))
(declare-fun o19545080 () (_ BitVec 1))
(declare-fun o22521600 () (_ BitVec 1))
(declare-fun o19159356 () (_ BitVec 1))
(declare-fun o35023716 () (_ BitVec 1))
(declare-fun o34514868 () (_ BitVec 1))
(declare-fun v27810748 () (_ BitVec 64))
(declare-fun o31517476 () (_ BitVec 1))
(declare-fun v30249324 () (_ BitVec 32))
(declare-fun o29481516 () (_ BitVec 8))
(declare-fun v30529948 () (_ BitVec 64))
(declare-fun o29539836 () (_ BitVec 1))
(declare-fun v30624788 () (_ BitVec 32))
(declare-fun o27102068 () (_ BitVec 1))
(declare-fun o31823444 () (_ BitVec 32))
(declare-fun o31753472 () (_ BitVec 32))
(declare-fun o32686608 () (_ BitVec 1))
(declare-fun v26933348 () (_ BitVec 32))
(declare-fun o23208112 () (_ BitVec 1))
(declare-fun v30563788 () (_ BitVec 8))
(declare-fun o23874808 () (_ BitVec 8))
(declare-fun o29576408 () (_ BitVec 8))
(declare-fun o29546956 () (_ BitVec 8))
(declare-fun o29273236 () (_ BitVec 1))
(declare-fun v26478696 () (_ BitVec 64))
(declare-fun o27405020 () (_ BitVec 1))
(declare-fun v49504816 () (_ BitVec 1))
(declare-fun v26383024 () (_ BitVec 32))
(declare-fun o18865568 () (_ BitVec 1))
(declare-fun o24173440 () (_ BitVec 1))
(declare-fun o23531600 () (_ BitVec 1))
(declare-fun v29709732 () (_ BitVec 64))
(declare-fun v30448196 () (_ BitVec 8))
(declare-fun o29443436 () (_ BitVec 8))
(declare-fun o32568540 () (_ BitVec 64))
(declare-fun o31743512 () (_ BitVec 64))
(declare-fun o21660164 () (_ BitVec 64))
(declare-fun v30362860 () (_ BitVec 64))
(declare-fun v41775944 () (_ BitVec 32))
(declare-fun v22930124 () (_ BitVec 8))
(declare-fun o25582920 () (_ BitVec 8))
(declare-fun o26941288 () (_ BitVec 32))
(declare-fun o29239356 () (_ BitVec 32))
(declare-fun o29429256 () (_ BitVec 32))
(declare-fun o29539676 () (_ BitVec 64))
(declare-fun o29476716 () (_ BitVec 64))
(declare-fun o27130752 () (_ BitVec 64))
(declare-fun o28890520 () (_ BitVec 1))
(declare-fun o32614916 () (_ BitVec 1))
(declare-fun v30678968 () (_ BitVec 64))
(declare-fun v30236860 () (_ BitVec 8))
(declare-fun o24950816 () (_ BitVec 8))
(declare-fun o31556244 () (_ BitVec 64))
(declare-fun o31515904 () (_ BitVec 64))
(declare-fun o29259116 () (_ BitVec 64))
(declare-fun o32559716 () (_ BitVec 1))
(declare-fun o32770128 () (_ BitVec 1))
(declare-fun o32287476 () (_ BitVec 64))
(declare-fun v35160180 () (_ BitVec 64))
(declare-fun v30870588 () (_ BitVec 8))
(declare-fun o29546396 () (_ BitVec 8))
(declare-fun o21013948 () (_ BitVec 64))
(declare-fun o25724164 () (_ BitVec 64))
(declare-fun o29414676 () (_ BitVec 64))
(declare-fun o32649460 () (_ BitVec 64))
(declare-fun v30842064 () (_ BitVec 32))
(declare-fun v28956932 () (_ BitVec 8))
(declare-fun o19747724 () (_ BitVec 8))
(declare-fun o37787052 () (_ BitVec 32))
(declare-fun o37787348 () (_ BitVec 32))
(declare-fun o29483356 () (_ BitVec 32))
(declare-fun o36525612 () (_ BitVec 64))
(declare-fun o25304892 () (_ BitVec 1))
(declare-fun o32560416 () (_ BitVec 1))
(declare-fun o40568892 () (_ BitVec 1))
(declare-fun o29428088 () (_ BitVec 1))
(declare-fun v30773304 () (_ BitVec 64))
(declare-fun o29365876 () (_ BitVec 1))
(declare-fun v30300032 () (_ BitVec 32))
(declare-fun o32695640 () (_ BitVec 1))
(declare-fun o23961832 () (_ BitVec 32))
(declare-fun o32688276 () (_ BitVec 32))
(declare-fun o31800300 () (_ BitVec 1))
(declare-fun o28926544 () (_ BitVec 1))
(declare-fun o23748392 () (_ BitVec 1))
(declare-fun o28763960 () (_ BitVec 1))
(declare-fun o24109476 () (_ BitVec 1))
(declare-fun o25015168 () (_ BitVec 1))
(declare-fun o29176404 () (_ BitVec 1))
(declare-fun o22898196 () (_ BitVec 1))
(declare-fun o29999268 () (_ BitVec 1))
(declare-fun o25379632 () (_ BitVec 1))
(declare-fun o22136800 () (_ BitVec 1))
(declare-fun o41748076 () (_ BitVec 1))
(declare-fun o50789664 () (_ BitVec 1))
(declare-fun o31159524 () (_ BitVec 1))
(declare-fun o33230396 () (_ BitVec 1))
(declare-fun o50749692 () (_ BitVec 1))
(declare-fun v30445188 () (_ BitVec 32))
(declare-fun o30105404 () (_ BitVec 32))
(declare-fun o32551216 () (_ BitVec 32))
(declare-fun o29440376 () (_ BitVec 8))
(declare-fun o27816232 () (_ BitVec 8))
(declare-fun o26515008 () (_ BitVec 1))
(declare-fun o26124664 () (_ BitVec 1))
(declare-fun v30904596 () (_ BitVec 64))
(declare-fun v29838708 () (_ BitVec 64))
(declare-fun o20328672 () (_ BitVec 64))
(declare-fun o20505636 () (_ BitVec 64))
(declare-fun v39005660 () (_ BitVec 64))
(declare-fun v22703812 () (_ BitVec 8))
(declare-fun o32600464 () (_ BitVec 8))
(declare-fun o31821036 () (_ BitVec 64))
(declare-fun o22802672 () (_ BitVec 64))
(declare-fun o25855360 () (_ BitVec 64))
(declare-fun o31304552 () (_ BitVec 64))
(declare-fun o22604788 () (_ BitVec 1))
(declare-fun o37007936 () (_ BitVec 1))
(declare-fun v41843608 () (_ BitVec 64))
(declare-fun v27386492 () (_ BitVec 64))
(declare-fun o25928652 () (_ BitVec 64))
(declare-fun o29647048 () (_ BitVec 64))
(declare-fun v36283120 () (_ BitVec 64))
(declare-fun v37894424 () (_ BitVec 8))
(declare-fun o28347408 () (_ BitVec 8))
(declare-fun o26387964 () (_ BitVec 64))
(declare-fun o26387924 () (_ BitVec 64))
(declare-fun o25948256 () (_ BitVec 64))
(declare-fun o24951024 () (_ BitVec 64))
(declare-fun o24950856 () (_ BitVec 1))
(declare-fun o38461000 () (_ BitVec 1))
(declare-fun v45737716 () (_ BitVec 32))
(declare-fun v29095620 () (_ BitVec 32))
(declare-fun o27036948 () (_ BitVec 32))
(declare-fun o32713944 () (_ BitVec 32))
(declare-fun o27232288 () (_ BitVec 32))
(declare-fun o31667080 () (_ BitVec 1))
(declare-fun o26809364 () (_ BitVec 1))
(declare-fun o27338244 () (_ BitVec 1))
(declare-fun Fresh__0 () (_ BitVec 1))
(declare-fun Fresh__1 () (_ BitVec 1))
(declare-fun Fresh__2 () (_ BitVec 1))
(declare-fun Fresh__3 () (_ BitVec 1))
(declare-fun Fresh__4 () (_ BitVec 1))
(declare-fun Fresh__5 () (_ BitVec 1))
(declare-fun Fresh__6 () (_ BitVec 1))
(declare-fun Fresh__7 () (_ BitVec 1))
(declare-fun Fresh__8 () (_ BitVec 1))
(declare-fun Fresh__9 () (_ BitVec 1))
(declare-fun Fresh__10 () (_ BitVec 1))
(declare-fun Fresh__11 () (_ BitVec 1))
(declare-fun Fresh__12 () (_ BitVec 1))
(declare-fun Fresh__13 () (_ BitVec 1))
(declare-fun Fresh__14 () (_ BitVec 1))
(declare-fun Fresh__15 () (_ BitVec 1))
(declare-fun Fresh__16 () (_ BitVec 1))
(declare-fun Fresh__17 () (_ BitVec 1))
(declare-fun Fresh__18 () (_ BitVec 1))
(declare-fun Fresh__19 () (_ BitVec 1))
(declare-fun Fresh__20 () (_ BitVec 1))
(declare-fun Fresh__21 () (_ BitVec 1))
(declare-fun Fresh__22 () (_ BitVec 1))
(declare-fun Fresh__23 () (_ BitVec 1))
(declare-fun Fresh__24 () (_ BitVec 1))
(declare-fun Fresh__25 () (_ BitVec 1))
(declare-fun Fresh__26 () (_ BitVec 1))
(declare-fun Fresh__27 () (_ BitVec 1))
(declare-fun Fresh__28 () (_ BitVec 1))
(declare-fun Fresh__29 () (_ BitVec 1))
(declare-fun Fresh__30 () (_ BitVec 1))
(declare-fun Fresh__31 () (_ BitVec 1))
(declare-fun Fresh__32 () (_ BitVec 1))
(declare-fun Fresh__33 () (_ BitVec 1))
(declare-fun Fresh__34 () (_ BitVec 1))
(declare-fun Fresh__35 () (_ BitVec 1))
(declare-fun Fresh__36 () (_ BitVec 1))
(declare-fun Fresh__37 () (_ BitVec 1))
(declare-fun Fresh__38 () (_ BitVec 1))
(declare-fun Fresh__39 () (_ BitVec 1))
(declare-fun Fresh__40 () (_ BitVec 1))
(declare-fun Fresh__41 () (_ BitVec 1))
(declare-fun Fresh__42 () (_ BitVec 1))
(declare-fun Fresh__43 () (_ BitVec 1))
(declare-fun Fresh__44 () (_ BitVec 1))
(declare-fun Fresh__45 () (_ BitVec 1))
(declare-fun Fresh__46 () (_ BitVec 1))
(declare-fun Fresh__47 () (_ BitVec 1))
(declare-fun Fresh__48 () (_ BitVec 1))
(declare-fun Fresh__49 () (_ BitVec 1))
(declare-fun Fresh__50 () (_ BitVec 1))
(declare-fun Fresh__51 () (_ BitVec 1))
(declare-fun Fresh__52 () (_ BitVec 1))
(declare-fun Fresh__53 () (_ BitVec 1))
(declare-fun Fresh__54 () (_ BitVec 1))
(declare-fun Fresh__55 () (_ BitVec 1))
(declare-fun Fresh__56 () (_ BitVec 1))
(declare-fun Fresh__57 () (_ BitVec 1))
(declare-fun Fresh__58 () (_ BitVec 1))
(declare-fun Fresh__59 () (_ BitVec 1))
(declare-fun Fresh__60 () (_ BitVec 1))
(declare-fun Fresh__61 () (_ BitVec 1))
(declare-fun Fresh__62 () (_ BitVec 1))
(declare-fun Fresh__63 () (_ BitVec 1))
(declare-fun Fresh__64 () (_ BitVec 1))
(declare-fun Fresh__65 () (_ BitVec 1))
(declare-fun Fresh__66 () (_ BitVec 1))
(declare-fun Fresh__67 () (_ BitVec 1))
(declare-fun Fresh__68 () (_ BitVec 1))
(declare-fun Fresh__69 () (_ BitVec 1))
(declare-fun Fresh__70 () (_ BitVec 1))
(declare-fun Fresh__71 () (_ BitVec 1))
(declare-fun Fresh__72 () (_ BitVec 1))
(declare-fun Fresh__73 () (_ BitVec 1))
(assert (= o22537460 ((_ sign_extend 32) v19364112)))
(assert (= o19034264 (bvadd o22537460 v23039128)))
(assert (= o23651612 (bvadd ((_ extract 63 0) (_ bv18446744073709551615 64)) o19034264)))
(assert (= o23327652 (bvudiv o23651612 o22537460)))
(assert (= (= Fresh__0 (_ bv1 1)) (bvult ((_ extract 63 0) (_ bv0 64)) o23327652)))
(assert (= o25718208 Fresh__0))
(assert (= (= Fresh__1 (_ bv1 1)) (bvslt v19516788 ((_ extract 63 0) (_ bv0 64)))))
(assert (= o23093316 Fresh__1))
(assert (= o20317252 (ite (= o23093316 (_ bv1 1)) ((_ extract 31 0) (_ bv18446744073709551615 64)) ((_ extract 31 0) (_ bv0 64)))))
(assert (= (= Fresh__2 (_ bv1 1)) (bvslt o20317252 ((_ extract 31 0) (_ bv0 64)))))
(assert (= o22660600 Fresh__2))
(assert (= (= Fresh__3 (_ bv1 1)) (bvsle ((_ extract 63 0) (_ bv0 64)) v19516788)))
(assert (= o23749368 Fresh__3))
(assert (= o22499180 (bvand ((_ extract 0 0) (_ bv1 64)) o23749368)))
(assert (= o22340300 (ite (= o23093316 (_ bv1 1)) ((_ extract 0 0) (_ bv1 64)) o22499180)))
(assert (= (= Fresh__4 (_ bv1 1)) (bvslt v25668136 ((_ extract 63 0) (_ bv0 64)))))
(assert (= o21222084 Fresh__4))
(assert (= (= Fresh__5 (_ bv1 1)) (bvslt v22780276 ((_ extract 63 0) (_ bv0 64)))))
(assert (= o22780308 Fresh__5))
(assert (= (= Fresh__6 (_ bv1 1)) (bvult v22780276 ((_ extract 63 0) (_ bv96 64)))))
(assert (= o22780332 Fresh__6))
(assert (= o21673656 (ite (= o22780332 (_ bv1 1)) ((_ extract 31 0) (_ bv18446744073709551615 64)) ((_ extract 31 0) (_ bv0 64)))))
(assert (= o21673684 (ite (= o22780308 (_ bv1 1)) v21673608 o21673656)))
(assert (= (= Fresh__7 (_ bv1 1)) (bvslt o21673684 ((_ extract 31 0) (_ bv0 64)))))
(assert (= o21449588 Fresh__7))
(assert (= (= Fresh__8 (_ bv1 1)) (bvsle ((_ extract 63 0) (_ bv0 64)) v22780276)))
(assert (= o21266652 Fresh__8))
(assert (= o21266688 (bvand ((_ extract 0 0) (_ bv1 64)) o21266652)))
(assert (= (= Fresh__9 (_ bv1 1)) (bvule ((_ extract 63 0) (_ bv96 64)) v22780276)))
(assert (= o24317332 Fresh__9))
(assert (= o25407732 (bvand o21266688 o24317332)))
(assert (= o25407768 (ite (= o22780332 (_ bv1 1)) o21266688 o25407732)))
(assert (= o20393336 (ite (= o22780308 (_ bv1 1)) ((_ extract 0 0) (_ bv1 64)) o25407768)))
(assert (= (= Fresh__10 (_ bv1 1)) (bvsle ((_ extract 63 0) (_ bv0 64)) v25668136)))
(assert (= o25668184 Fresh__10))
(assert (= o25668220 (bvand ((_ extract 0 0) (_ bv1 64)) o25668184)))
(assert (= o20393356 (bvand o20393336 o25668220)))
(assert (= (= Fresh__11 (_ bv1 1)) (bvsle ((_ extract 31 0) (_ bv0 64)) o21673684)))
(assert (= o19153716 Fresh__11))
(assert (= o20393392 (bvand o20393356 o19153716)))
(assert (= o22751640 (ite (= o21449588 (_ bv1 1)) o20393356 o20393392)))
(assert (= o22751544 (ite (= o21222084 (_ bv1 1)) ((_ extract 0 0) (_ bv1 64)) o22751640)))
(assert (= (= Fresh__12 (_ bv1 1)) (bvsle ((_ extract 31 0) (_ bv0 64)) v22548456)))
(assert (= o24165336 Fresh__12))
(assert (= (= Fresh__13 (_ bv1 1)) (distinct v24605372 ((_ extract 31 0) (_ bv0 64)))))
(assert (= o21303860 Fresh__13))
(assert (= o21303896 (bvand ((_ extract 0 0) (_ bv1 64)) o21303860)))
(assert (= (= Fresh__14 (_ bv1 1)) (distinct ((_ extract 31 0) (_ bv0 64)) v25077452)))
(assert (= o25077508 Fresh__14))
(assert (= o25077544 (bvand o21303896 o25077508)))
(assert (= o24998812 (bvand o24165336 o25077544)))
(assert (= o20580672 (bvand ((_ extract 0 0) (_ bv1 64)) o24998812)))
(assert (= (= Fresh__15 (_ bv1 1)) (distinct ((_ extract 31 0) (_ bv18446744073709551615 64)) v19061472)))
(assert (= o21303836 Fresh__15))
(assert (= o22200596 ((_ zero_extend 7) o21303836)))
(assert (= (= Fresh__16 (_ bv1 1)) (distinct o22200596 ((_ extract 7 0) (_ bv0 64)))))
(assert (= o25470900 Fresh__16))
(assert (= o20580708 (bvand o20580672 o25470900)))
(assert (= o23717016 (bvand o22751544 o20580708)))
(assert (= (= Fresh__17 (_ bv1 1)) (= v20393428 ((_ extract 31 0) (_ bv0 64)))))
(assert (= o23127324 Fresh__17))
(assert (= o23127368 (ite (= o23127324 (_ bv1 1)) ((_ extract 31 0) (_ bv0 64)) ((_ extract 31 0) (_ bv18446744073709551615 64)))))
(assert (= o23127404 (ite (= o21449588 (_ bv1 1)) v23521564 o23127368)))
(assert (= o20355160 (ite (= o21222084 (_ bv1 1)) v23521564 o23127404)))
(assert (= (= Fresh__18 (_ bv1 1)) (bvsle ((_ extract 31 0) (_ bv0 64)) o20355160)))
(assert (= o20355204 Fresh__18))
(assert (= o23716984 (bvand o23717016 o20355204)))
(assert (= (= Fresh__19 (_ bv1 1)) (bvslt v19190664 ((_ extract 63 0) (_ bv0 64)))))
(assert (= o25454344 Fresh__19))
(assert (= (= Fresh__20 (_ bv1 1)) (bvslt v25122984 ((_ extract 63 0) (_ bv0 64)))))
(assert (= o25123008 Fresh__20))
(assert (= (= Fresh__21 (_ bv1 1)) (bvult v25122984 v20576284)))
(assert (= o29503036 Fresh__21))
(assert (= o25009676 (ite (= o29503036 (_ bv1 1)) ((_ extract 31 0) (_ bv18446744073709551615 64)) ((_ extract 31 0) (_ bv0 64)))))
(assert (= o22702164 (ite (= o25123008 (_ bv1 1)) v25144596 o25009676)))
(assert (= (= Fresh__22 (_ bv1 1)) (bvslt o22702164 ((_ extract 31 0) (_ bv0 64)))))
(assert (= o29415276 Fresh__22))
(assert (= (= Fresh__23 (_ bv1 1)) (bvsle ((_ extract 63 0) (_ bv0 64)) v25122984)))
(assert (= o25531300 Fresh__23))
(assert (= o25123048 (bvand ((_ extract 0 0) (_ bv1 64)) o25531300)))
(assert (= (= Fresh__24 (_ bv1 1)) (bvule v20576284 v25122984)))
(assert (= o31516244 Fresh__24))
(assert (= o29527836 (bvand o31516244 o25123048)))
(assert (= o27300472 (ite (= o29503036 (_ bv1 1)) o25123048 o29527836)))
(assert (= o29470356 (ite (= o25123008 (_ bv1 1)) ((_ extract 0 0) (_ bv1 64)) o27300472)))
(assert (= o32692492 (bvshl v20576284 (concat (_ bv0 56) ((_ extract 7 0) (_ bv3 64))))))
(assert (= (= Fresh__25 (_ bv1 1)) (bvule o32692492 ((_ extract 63 0) (_ bv0 64)))))
(assert (= o25072480 Fresh__25))
(assert (= (= Fresh__26 (_ bv1 1)) (distinct ((_ extract 31 0) (_ bv0 64)) v25093012)))
(assert (= o21759364 Fresh__26))
(assert (= o21759312 (bvand o21759364 ((_ extract 0 0) (_ bv1 64)))))
(assert (= o27095048 (ite (= v27189596 (_ bv1 1)) o21759312 v27189596)))
(assert (= (= Fresh__27 (_ bv1 1)) (bvsle ((_ extract 63 0) (_ bv0 64)) v19190664)))
(assert (= o19316296 Fresh__27))
(assert (= o19316324 (bvand ((_ extract 0 0) (_ bv1 64)) o19316296)))
(assert (= o28443504 (bvand o27095048 o19316324)))
(assert (= o32644836 (bvand o25072480 o28443504)))
(assert (= o50755068 (bvand o29470356 o32644836)))
(assert (= o50805700 (bvand o29415276 o50755068)))
(assert (= o23552076 (bvand o25072480 ((_ extract 0 0) (_ bv1 64)))))
(assert (= o39975020 (ite (= v27189596 (_ bv1 1)) o23552076 ((_ extract 0 0) (_ bv1 64)))))
(assert (= o36596960 (bvand o50805700 o39975020)))
(assert (= (= Fresh__28 (_ bv1 1)) (bvslt v25531356 ((_ extract 31 0) (_ bv0 64)))))
(assert (= o25644820 Fresh__28))
(assert (= (= Fresh__29 (_ bv1 1)) (bvsle ((_ extract 31 0) (_ bv0 64)) o22702164)))
(assert (= o32558196 Fresh__29))
(assert (= o19000660 (bvand o50755068 o32558196)))
(assert (= o21286176 (bvand o19000660 o25644820)))
(assert (= o38529216 (bvand o21286176 o39975020)))
(assert (= (= Fresh__30 (_ bv1 1)) (bvsle ((_ extract 31 0) (_ bv0 64)) v25531356)))
(assert (= o25454364 Fresh__30))
(assert (= o21594200 (bvand o19000660 o25454364)))
(assert (= o30866344 (ite (= o25644820 (_ bv1 1)) o38529216 o21594200)))
(assert (= o35556656 (ite (= o29415276 (_ bv1 1)) o36596960 o30866344)))
(assert (= o24181732 (ite (= o25454344 (_ bv1 1)) ((_ extract 0 0) (_ bv1 64)) o35556656)))
(assert (= o33410680 (bvand o23716984 o24181732)))
(assert (= (= Fresh__31 (_ bv1 1)) (bvslt v21505320 ((_ extract 63 0) (_ bv0 64)))))
(assert (= o18858432 Fresh__31))
(assert (= (= Fresh__32 (_ bv1 1)) (bvslt v22013688 ((_ extract 63 0) (_ bv0 64)))))
(assert (= o23562044 Fresh__32))
(assert (= (= Fresh__33 (_ bv1 1)) (bvult v22013688 v25387700)))
(assert (= o21410672 Fresh__33))
(assert (= o20784696 (ite (= o21410672 (_ bv1 1)) ((_ extract 31 0) (_ bv18446744073709551615 64)) ((_ extract 31 0) (_ bv0 64)))))
(assert (= o20784716 (ite (= o23562044 (_ bv1 1)) v22882888 o20784696)))
(assert (= (= Fresh__34 (_ bv1 1)) (bvslt o20784716 ((_ extract 31 0) (_ bv0 64)))))
(assert (= o19190696 Fresh__34))
(assert (= (= Fresh__35 (_ bv1 1)) (bvslt v20846788 ((_ extract 31 0) (_ bv0 64)))))
(assert (= o20513192 Fresh__35))
(assert (= o25588368 (ite (= o20513192 (_ bv1 1)) ((_ extract 31 0) (_ bv0 64)) v18927880)))
(assert (= o25588404 (ite (= o19190696 (_ bv1 1)) v25026348 o25588368)))
(assert (= o25692912 (ite (= o18858432 (_ bv1 1)) v25026348 o25588404)))
(assert (= (= Fresh__36 (_ bv1 1)) (distinct o25692912 ((_ extract 31 0) (_ bv0 64)))))
(assert (= o25692964 Fresh__36))
(assert (= o51737508 (bvand o33410680 o25692964)))
(assert (= (= Fresh__37 (_ bv1 1)) (bvult ((_ extract 31 0) (_ bv0 64)) v25077452)))
(assert (= o22504312 Fresh__37))
(assert (= o24649952 (bvand o51737508 o22504312)))
(assert (= (= Fresh__38 (_ bv1 1)) (bvule v20639260 v21992300)))
(assert (= o19425432 Fresh__38))
(assert (= o38434836 (bvand o24649952 o19425432)))
(assert (= (= Fresh__39 (_ bv1 1)) (bvule v21992300 v23697620)))
(assert (= o22366488 Fresh__39))
(assert (= o36493360 (bvand o38434836 o22366488)))
(assert (= o45769360 (bvand o22340300 o36493360)))
(assert (= (= Fresh__40 (_ bv1 1)) (bvslt v19560048 ((_ extract 63 0) (_ bv0 64)))))
(assert (= o22364272 Fresh__40))
(assert (= (= Fresh__41 (_ bv1 1)) (bvult v19560048 ((_ extract 63 0) (_ bv24 64)))))
(assert (= o19616752 Fresh__41))
(assert (= o19647940 (ite (= o19616752 (_ bv1 1)) ((_ extract 31 0) (_ bv18446744073709551615 64)) ((_ extract 31 0) (_ bv0 64)))))
(assert (= o20432844 (ite (= o22364272 (_ bv1 1)) v25968884 o19647940)))
(assert (= (= Fresh__42 (_ bv1 1)) (bvslt o20432844 ((_ extract 31 0) (_ bv0 64)))))
(assert (= o21676376 Fresh__42))
(assert (= (= Fresh__43 (_ bv1 1)) (bvsle ((_ extract 63 0) (_ bv0 64)) v19560048)))
(assert (= o23069060 Fresh__43))
(assert (= o24481612 (bvand ((_ extract 0 0) (_ bv1 64)) o23069060)))
(assert (= (= Fresh__44 (_ bv1 1)) (bvule ((_ extract 63 0) (_ bv24 64)) v19560048)))
(assert (= o23830276 Fresh__44))
(assert (= o21273216 (bvand o24481612 o23830276)))
(assert (= o21842604 (ite (= o19616752 (_ bv1 1)) o24481612 o21273216)))
(assert (= o19551252 (ite (= o22364272 (_ bv1 1)) ((_ extract 0 0) (_ bv1 64)) o21842604)))
(assert (= (= Fresh__45 (_ bv1 1)) (bvsle ((_ extract 31 0) (_ bv0 64)) o20317252)))
(assert (= o21576812 Fresh__45))
(assert (= o26116684 (bvand o45769360 o21576812)))
(assert (= o35410832 (bvand o19551252 o26116684)))
(assert (= (= Fresh__46 (_ bv1 1)) (bvsle ((_ extract 31 0) (_ bv0 64)) o20432844)))
(assert (= o21430092 Fresh__46))
(assert (= o24306320 (bvand o35410832 o21430092)))
(assert (= o27055816 (ite (= o21676376 (_ bv1 1)) o35410832 o24306320)))
(assert (= o39073808 (ite (= o22660600 (_ bv1 1)) o45769360 o27055816)))
(assert (= o19672876 (ite (= o21676376 (_ bv1 1)) ((_ extract 31 0) (_ bv18446744073709551615 64)) ((_ extract 31 0) (_ bv0 64)))))
(assert (= o23224712 (ite (= o22660600 (_ bv1 1)) v19369536 o19672876)))
(assert (= (= Fresh__47 (_ bv1 1)) (bvsle ((_ extract 31 0) (_ bv0 64)) o23224712)))
(assert (= o19545080 Fresh__47))
(assert (= o22521600 (bvand o39073808 o19545080)))
(assert (= (= Fresh__48 (_ bv1 1)) (distinct ((_ extract 63 0) (_ bv0 64)) v23039128)))
(assert (= o19159356 Fresh__48))
(assert (= o35023716 (bvand o22521600 o19159356)))
(assert (= o34514868 (bvand o25718208 o35023716)))
(assert (= (= Fresh__49 (_ bv1 1)) (bvslt v27810748 ((_ extract 63 0) (_ bv0 64)))))
(assert (= o31517476 Fresh__49))
(assert (= o29481516 ((_ extract 7 0) v30249324)))
(assert (= (= Fresh__50 (_ bv1 1)) (bvslt v30529948 ((_ extract 63 0) (_ bv0 64)))))
(assert (= o29539836 Fresh__50))
(assert (= (= Fresh__51 (_ bv1 1)) (bvult v30529948 v20576284)))
(assert (= o27102068 Fresh__51))
(assert (= o31823444 (ite (= o27102068 (_ bv1 1)) ((_ extract 31 0) (_ bv18446744073709551615 64)) ((_ extract 31 0) (_ bv0 64)))))
(assert (= o31753472 (ite (= o29539836 (_ bv1 1)) v30624788 o31823444)))
(assert (= (= Fresh__52 (_ bv1 1)) (bvslt o31753472 ((_ extract 31 0) (_ bv0 64)))))
(assert (= o32686608 Fresh__52))
(assert (= (= Fresh__53 (_ bv1 1)) (bvslt v26933348 ((_ extract 31 0) (_ bv0 64)))))
(assert (= o23208112 Fresh__53))
(assert (= o23874808 (ite (= o23208112 (_ bv1 1)) ((_ extract 7 0) (_ bv0 64)) v30563788)))
(assert (= o29576408 (ite (= o32686608 (_ bv1 1)) o29481516 o23874808)))
(assert (= o29546956 (ite (= o31517476 (_ bv1 1)) o29481516 o29576408)))
(assert (= (= Fresh__54 (_ bv1 1)) (= o29546956 ((_ extract 7 0) (_ bv0 64)))))
(assert (= o29273236 Fresh__54))
(assert (= (= Fresh__55 (_ bv1 1)) (bvslt v26478696 ((_ extract 63 0) (_ bv0 64)))))
(assert (= o27405020 Fresh__55))
(assert (= (= Fresh__56 (_ bv1 1)) (distinct ((_ extract 31 0) (_ bv0 64)) v26383024)))
(assert (= o18865568 Fresh__56))
(assert (= o24173440 (bvand o18865568 ((_ extract 0 0) (_ bv1 64)))))
(assert (= o23531600 (ite (= v49504816 (_ bv1 1)) o24173440 v49504816)))
(assert (= o29443436 (ite (= o23208112 (_ bv1 1)) ((_ extract 7 0) (_ bv0 64)) v30448196)))
(assert (= o32568540 ((_ sign_extend 56) o29443436)))
(assert (= o31743512 (ite (= o32686608 (_ bv1 1)) v29709732 o32568540)))
(assert (= o21660164 (ite (= o31517476 (_ bv1 1)) v29709732 o31743512)))
(assert (= o25582920 (ite (= o23208112 (_ bv1 1)) ((_ extract 7 0) (_ bv0 64)) v22930124)))
(assert (= o26941288 ((_ sign_extend 24) o25582920)))
(assert (= o29239356 (ite (= o32686608 (_ bv1 1)) v41775944 o26941288)))
(assert (= o29429256 (ite (= o31517476 (_ bv1 1)) v41775944 o29239356)))
(assert (= o29539676 ((_ sign_extend 32) o29429256)))
(assert (= o29476716 (bvsrem v30362860 o29539676)))
(assert (= o27130752 (bvsub v30362860 o29476716)))
(assert (= (= Fresh__57 (_ bv1 1)) (bvsle o21660164 o27130752)))
(assert (= o28890520 Fresh__57))
(assert (= o32614916 (bvand ((_ extract 0 0) (_ bv1 64)) o28890520)))
(assert (= o24950816 (ite (= o23208112 (_ bv1 1)) ((_ extract 7 0) (_ bv0 64)) v30236860)))
(assert (= o31556244 ((_ sign_extend 56) o24950816)))
(assert (= o31515904 (ite (= o32686608 (_ bv1 1)) v30678968 o31556244)))
(assert (= o29259116 (ite (= o31517476 (_ bv1 1)) v30678968 o31515904)))
(assert (= (= Fresh__58 (_ bv1 1)) (bvslt o27130752 o29259116)))
(assert (= o32559716 Fresh__58))
(assert (= o32770128 (bvand o32614916 o32559716)))
(assert (= o32287476 (bvsub o27130752 o21660164)))
(assert (= o29546396 (ite (= o23208112 (_ bv1 1)) ((_ extract 7 0) (_ bv0 64)) v30870588)))
(assert (= o21013948 ((_ sign_extend 56) o29546396)))
(assert (= o25724164 (ite (= o32686608 (_ bv1 1)) v35160180 o21013948)))
(assert (= o29414676 (ite (= o31517476 (_ bv1 1)) v35160180 o25724164)))
(assert (= o32649460 (bvudiv o32287476 o29414676)))
(assert (= o19747724 (ite (= o23208112 (_ bv1 1)) ((_ extract 7 0) (_ bv0 64)) v28956932)))
(assert (= o37787052 ((_ sign_extend 24) o19747724)))
(assert (= o37787348 (ite (= o32686608 (_ bv1 1)) v30842064 o37787052)))
(assert (= o29483356 (ite (= o31517476 (_ bv1 1)) v30842064 o37787348)))
(assert (= o36525612 ((_ sign_extend 32) o29483356)))
(assert (= (= Fresh__59 (_ bv1 1)) (bvult o32649460 o36525612)))
(assert (= o25304892 Fresh__59))
(assert (= o32560416 (bvand o32770128 o25304892)))
(assert (= o40568892 (bvand o29273236 o32560416)))
(assert (= o29428088 (bvand o23531600 o40568892)))
(assert (= (= Fresh__60 (_ bv1 1)) (bvslt v30773304 ((_ extract 63 0) (_ bv0 64)))))
(assert (= o29365876 Fresh__60))
(assert (= (= Fresh__61 (_ bv1 1)) (bvult v30773304 o29539676)))
(assert (= o32695640 Fresh__61))
(assert (= o23961832 (ite (= o32695640 (_ bv1 1)) ((_ extract 31 0) (_ bv18446744073709551615 64)) ((_ extract 31 0) (_ bv0 64)))))
(assert (= o32688276 (ite (= o29365876 (_ bv1 1)) v30300032 o23961832)))
(assert (= (= Fresh__62 (_ bv1 1)) (bvslt o32688276 ((_ extract 31 0) (_ bv0 64)))))
(assert (= o31800300 Fresh__62))
(assert (= (= Fresh__63 (_ bv1 1)) (bvsle ((_ extract 63 0) (_ bv0 64)) v30773304)))
(assert (= o28926544 Fresh__63))
(assert (= o23748392 (bvand ((_ extract 0 0) (_ bv1 64)) o28926544)))
(assert (= (= Fresh__64 (_ bv1 1)) (bvule o29539676 v30773304)))
(assert (= o28763960 Fresh__64))
(assert (= o24109476 (bvand o23748392 o28763960)))
(assert (= o25015168 (ite (= o32695640 (_ bv1 1)) o23748392 o24109476)))
(assert (= o29176404 (ite (= o29365876 (_ bv1 1)) ((_ extract 0 0) (_ bv1 64)) o25015168)))
(assert (= (= Fresh__65 (_ bv1 1)) (bvsle ((_ extract 63 0) (_ bv0 64)) v26478696)))
(assert (= o22898196 Fresh__65))
(assert (= o29999268 (bvand o29428088 o22898196)))
(assert (= o25379632 (bvand o29176404 o29999268)))
(assert (= (= Fresh__66 (_ bv1 1)) (bvsle ((_ extract 31 0) (_ bv0 64)) o32688276)))
(assert (= o22136800 Fresh__66))
(assert (= o41748076 (bvand o22136800 o25379632)))
(assert (= o50789664 (ite (= o31800300 (_ bv1 1)) o25379632 o41748076)))
(assert (= o31159524 (ite (= o27405020 (_ bv1 1)) o29428088 o50789664)))
(assert (= o33230396 (ite (= o29273236 (_ bv1 1)) o31159524 o32560416)))
(assert (= o50749692 (bvand o33230396 o32770128)))
(assert (= o30105404 (ite (= o31800300 (_ bv1 1)) ((_ extract 31 0) (_ bv0 64)) v26383024)))
(assert (= o32551216 (ite (= o27405020 (_ bv1 1)) v30445188 o30105404)))
(assert (= o29440376 ((_ extract 7 0) o32551216)))
(assert (= o27816232 (ite (= o29273236 (_ bv1 1)) o29440376 o29546956)))
(assert (= (= Fresh__67 (_ bv1 1)) (distinct o27816232 ((_ extract 7 0) (_ bv0 64)))))
(assert (= o26515008 Fresh__67))
(assert (= o26124664 (bvand o50749692 o26515008)))
(assert (= o20328672 (ite (= o31800300 (_ bv1 1)) ((_ extract 63 0) (_ bv0 64)) v29838708)))
(assert (= o20505636 (ite (= o27405020 (_ bv1 1)) v30904596 o20328672)))
(assert (= o32600464 (ite (= o23208112 (_ bv1 1)) ((_ extract 7 0) (_ bv0 64)) v22703812)))
(assert (= o31821036 ((_ sign_extend 56) o32600464)))
(assert (= o22802672 (ite (= o32686608 (_ bv1 1)) v39005660 o31821036)))
(assert (= o25855360 (ite (= o31517476 (_ bv1 1)) v39005660 o22802672)))
(assert (= o31304552 (ite (= o29273236 (_ bv1 1)) o20505636 o25855360)))
(assert (= (= Fresh__68 (_ bv1 1)) (bvsle o31304552 o27130752)))
(assert (= o22604788 Fresh__68))
(assert (= o37007936 (bvand o26124664 o22604788)))
(assert (= o25928652 (ite (= o31800300 (_ bv1 1)) ((_ extract 63 0) (_ bv0 64)) v27386492)))
(assert (= o29647048 (ite (= o27405020 (_ bv1 1)) v41843608 o25928652)))
(assert (= o28347408 (ite (= o23208112 (_ bv1 1)) ((_ extract 7 0) (_ bv0 64)) v37894424)))
(assert (= o26387964 ((_ sign_extend 56) o28347408)))
(assert (= o26387924 (ite (= o32686608 (_ bv1 1)) v36283120 o26387964)))
(assert (= o25948256 (ite (= o31517476 (_ bv1 1)) v36283120 o26387924)))
(assert (= o24951024 (ite (= o29273236 (_ bv1 1)) o29647048 o25948256)))
(assert (= (= Fresh__69 (_ bv1 1)) (bvslt o27130752 o24951024)))
(assert (= o24950856 Fresh__69))
(assert (= o38461000 (bvand o37007936 o24950856)))
(assert (= o27036948 (ite (= o23208112 (_ bv1 1)) ((_ extract 31 0) (_ bv0 64)) v29095620)))
(assert (= o32713944 (ite (= o32686608 (_ bv1 1)) v45737716 o27036948)))
(assert (= o27232288 (ite (= o31517476 (_ bv1 1)) v45737716 o32713944)))
(assert (= (= Fresh__70 (_ bv1 1)) (distinct o27232288 ((_ extract 31 0) (_ bv0 64)))))
(assert (= o31667080 Fresh__70))
(assert (= (= Fresh__71 (_ bv1 1)) (=> (= o38461000 (_ bv1 1)) (= o31667080 (_ bv1 1)))))
(assert (= o26809364 Fresh__71))
(assert (= (= Fresh__72 (_ bv1 1)) (=> (= o34514868 (_ bv1 1)) (= o26809364 (_ bv1 1)))))
(assert (= o27338244 Fresh__72))
(assert (= (= Fresh__73 (_ bv1 1)) (= ((_ extract 0 0) (_ bv0 64)) o27338244)))
(assert (= (_ bv1 1) Fresh__73))
(check-sat)
(exit)
